(set-logic QF_SLIA)
(declare-fun var0 () String)
(assert (str.in_re var0 (re.++ ((_ re.loop 1 944) (re.++ (re.union (str.to_re ";9") (re.union (str.to_re "+o@") (re.union (str.to_re "+)") (str.to_re "*&3")))) (re.++ (re.union (str.to_re "zg2") (re.union (str.to_re "b") (re.union (str.to_re "rIX") (str.to_re "S")))) (re.++ (re.union (str.to_re "Ps") (re.union (str.to_re "t") (re.union (str.to_re "AR") (str.to_re "e")))) (re.union (str.to_re "[H") (re.union (str.to_re "r#(") (re.union (str.to_re "<") (str.to_re "2")))))))) (re.++ ((_ re.loop 0 436) (re.++ (re.union (str.to_re "|") (re.union (str.to_re "?!") (re.union (str.to_re ":") (str.to_re "G+")))) (re.++ (re.union (str.to_re "a]J") (re.union (str.to_re "x-o") (re.union (str.to_re "vf") (str.to_re "Z(I")))) (re.++ (re.union (str.to_re "q") (re.union (str.to_re "+:") (re.union (str.to_re "^") (str.to_re "G_M")))) (re.union (str.to_re "V^b") (re.union (str.to_re "3") (re.union (str.to_re "rg;") (str.to_re "Ry")))))))) (re.++ ((_ re.loop 19 505) (re.++ (re.union (str.to_re "iUu") (re.union (str.to_re "]") (re.union (str.to_re "yuG") (str.to_re "4JQ")))) (re.++ (re.union (str.to_re "quq") (re.union (str.to_re "]") (re.union (str.to_re "ou`") (str.to_re "Kmr")))) (re.++ (re.union (str.to_re "|") (re.union (str.to_re "(WO") (re.union (str.to_re "M]") (str.to_re "w]")))) (re.union (str.to_re "FwB") (re.union (str.to_re "dtp") (re.union (str.to_re "/M") (str.to_re "FVB")))))))) ((_ re.loop 18 153) (re.++ (re.union (str.to_re "\\.`") (re.union (str.to_re ".@Q") (re.union (str.to_re "nF") (str.to_re "|Qb")))) (re.++ (re.union (str.to_re "r~") (re.union (str.to_re "51<") (re.union (str.to_re "4") (str.to_re "c")))) (re.++ (re.union (str.to_re "7") (re.union (str.to_re "ax") (re.union (str.to_re "#:~") (str.to_re "Q")))) (re.union (str.to_re "Xb") (re.union (str.to_re "a") (re.union (str.to_re "g") (str.to_re "L_")))))))))))))
(assert (not (str.in_re var0 (re.++ ((_ re.loop 6 353) (re.++ (re.union (str.to_re "(}C") (re.union (str.to_re "=") (re.union (str.to_re "[7C") (str.to_re "j")))) (re.++ (re.union (str.to_re "[&U") (re.union (str.to_re "`") (re.union (str.to_re ".") (str.to_re "/Qa")))) (re.++ (re.union (str.to_re "?0") (re.union (str.to_re "A%8") (re.union (str.to_re "v") (str.to_re "{")))) (re.union (str.to_re "z0") (re.union (str.to_re "NQ#") (re.union (str.to_re "\\") (str.to_re "KI")))))))) (re.++ ((_ re.loop 4 694) (re.++ (re.union (str.to_re "G") (re.union (str.to_re "[") (re.union (str.to_re "V") (str.to_re "&S6")))) (re.++ (re.union (str.to_re "J)v") (re.union (str.to_re "_C") (re.union (str.to_re "d9") (str.to_re "MX")))) (re.++ (re.union (str.to_re "l") (re.union (str.to_re "!") (re.union (str.to_re "D[") (str.to_re "8.s")))) (re.union (str.to_re "@&") (re.union (str.to_re "t") (re.union (str.to_re "\\") (str.to_re "A(v")))))))) (re.++ ((_ re.loop 1 335) (re.++ (re.union (str.to_re "#t") (re.union (str.to_re "wU") (re.union (str.to_re "9U%") (str.to_re "_MI")))) (re.++ (re.union (str.to_re "_") (re.union (str.to_re "Ky") (re.union (str.to_re "9") (str.to_re "z|")))) (re.++ (re.union (str.to_re "/~j") (re.union (str.to_re "D") (re.union (str.to_re "E") (str.to_re "b")))) (re.union (str.to_re "r") (re.union (str.to_re "Or") (re.union (str.to_re "7lY") (str.to_re "M")))))))) ((_ re.loop 11 205) (re.++ (re.union (str.to_re "yMs") (re.union (str.to_re "P") (re.union (str.to_re "2iI") (str.to_re "BO:")))) (re.++ (re.union (str.to_re "aXC") (re.union (str.to_re "^") (re.union (str.to_re "@") (str.to_re "|G$")))) (re.++ (re.union (str.to_re "7LA") (re.union (str.to_re "[") (re.union (str.to_re "d") (str.to_re "3|e")))) (re.union (str.to_re "er") (re.union (str.to_re "*ZI") (re.union (str.to_re "3~") (str.to_re "O"))))))))))))))
(assert (not (str.in_re var0 (re.++ (re.* re.allchar) (re.++ (re.union (str.to_re "<") (re.union (str.to_re ">") (re.union (str.to_re "'") (re.union (str.to_re "\u0022") (str.to_re "&"))))) (re.* re.allchar))))))
(assert (<= 50 (str.len var0)))
(check-sat)
(get-model)
